Cars = 1..200;
Options = 1..5;
Classes = 1..23;
sequenceMinCapacity = [0, 0, 0, 0, 0];
sequenceMaxCapacity = [1, 2, 1, 2, 1];
sequenceSize = [2, 3, 3, 5, 5];
numOrdered = [17, 2, 18, 8, 1, 5, 5, 3, 11, 4, 9, 4, 40, 1, 2, 6, 3, 29, 18, 1, 9, 2, 2];
classHasOption = [|false, false, false, false,  true
                  |false,  true,  true, false,  true
                  |false,  true, false,  true, false
                  | true, false,  true, false, false
                  |false, false, false,  true,  true
                  |false,  true,  true, false, false
                  |false, false,  true, false,  true
                  | true,  true,  true, false, false
                  | true,  true, false, false, false
                  |false,  true,  true,  true, false
                  |false, false,  true,  true, false
                  | true,  true, false, false,  true
                  |false,  true, false, false, false
                  | true, false, false,  true,  true
                  | true, false, false, false,  true
                  | true, false, false,  true, false
                  |false,  true, false, false,  true
                  | true, false, false, false, false
                  |false, false, false,  true, false
                  | true, false,  true,  true, false
                  |false, false,  true, false, false
                  | true,  true,  true, false,  true
                  | true,  true, false,  true, false|];
optionOrdering = [5, 3, 1, 4, 2];
